benchmarks_vrp/CMT12/fixed_c/CMT12_3.vrp
NAME: CMT12_3
TYPE: CVRP
COMMENT: 819.56 - Cluster Nr.3
DIMENSION: 7
CAPACITY: 200
EDGE_WEIGHT_TYPE: EUC_2D
NODE_COORD_TYPE: TWOD_COORDS
NODE_COORD_SECTION: 
1 55 85
3 40 50
4 55 80
6 58 75
5 60 85
7 60 80
2 62 80
DEPOT_SECTION: 
3
-1
DEMAND_SECTION: 
2 30
7 10
4 10
3 0
6 20
5 30
1 20
EOF
