benchmarks_vrp/CMT12/fixed_c/CMT12_3.tour
NAME: CMT12_3 solution
TYPE: TOUR
TOUR_SECTION:
3 4 1 5 2 7 6 -1
-1
EOF